% Tamarin R5 E_pin_lotlpq bayraklar=PIN_TL+LOTL_PQ (otomatik üretildi: regresyon/tamarin_esdegerlik.py)
sure(uzun,157680000). sure(sonsuz,2000000000).
artefakt(lotl). sinif(lotl,ornek). imzali(lotl). pencere_sabit(lotl,sonsuz). kanal(lotl,aktarilan). sabit(lotl). 
artefakt(tl). sinif(tl,ornek). imzali(tl). pencere_sabit(tl,sonsuz). kanal(tl,aktarilan). sabit(tl). 
artefakt(cred). sinif(cred,ornek). imzali(cred). pencere_sabit(cred,sonsuz). kanal(cred,aktarilan). 
kenar(e1,tl,lotl). kenar(e2,cred,tl). hedef_artefakt(g1,cred). ana_hedef(g1).
